(set-logic QF_UF)
(declare-fun A0 () Bool)
(declare-fun A1 () Bool)
(declare-fun A2 () Bool)
(declare-fun A3 () Bool)
(declare-fun A4 () Bool)
(declare-fun A5 () Bool)
(declare-fun A6 () Bool)
(declare-fun A7 () Bool)
(declare-fun A8 () Bool)
(declare-fun A9 () Bool)
(declare-fun A10 () Bool)
(declare-fun A11 () Bool)
(declare-fun A12 () Bool)
(declare-fun A13 () Bool)
(declare-fun A14 () Bool)
(declare-fun A15 () Bool)
(declare-fun A16 () Bool)
(declare-fun A17 () Bool)
(declare-fun A18 () Bool)
(declare-fun A19 () Bool)
(declare-fun A20 () Bool)
(declare-fun A21 () Bool)
(declare-fun A22 () Bool)
(declare-fun A23 () Bool)
(declare-fun A24 () Bool)
(assert (let ((.def_0 (not A9))) (let ((.def_1 (or A7 .def_0))) (let ((.def_2 (not .def_1))) (let ((.def_3 (not A1))) (let ((.def_4 (or .def_3 A1))) (let ((.def_5 (and .def_4 .def_2))) (let ((.def_6 (or A2 A0))) (let ((.def_7 (not .def_6))) (let ((.def_8 (or A9 A10))) (let ((.def_9 (and .def_8 .def_7))) (let ((.def_10 (and .def_9 .def_5))) (let ((.def_11 (not A10))) (let ((.def_12 (and .def_11 A23))) (let ((.def_13 (or A18 A3))) (let ((.def_14 (not .def_13))) (let ((.def_15 (and .def_14 .def_12))) (let ((.def_16 (not A24))) (let ((.def_17 (and A18 .def_16))) (let ((.def_18 (not .def_17))) (let ((.def_19 (not A19))) (let ((.def_20 (and .def_19 A20))) (let ((.def_21 (and .def_20 .def_18))) (let ((.def_22 (or .def_21 .def_15))) (let ((.def_23 (and .def_22 .def_10))) (let ((.def_24 (not .def_23))) (let ((.def_25 (not A8))) (let ((.def_26 (or A5 .def_25))) (let ((.def_27 (not .def_26))) (let ((.def_28 (not A0))) (let ((.def_29 (or .def_25 .def_28))) (let ((.def_30 (not .def_29))) (let ((.def_31 (or .def_30 .def_27))) (let ((.def_32 (not A11))) (let ((.def_33 (and .def_25 .def_32))) (let ((.def_34 (not .def_33))) (let ((.def_35 (and A22 .def_11))) (let ((.def_36 (or .def_35 .def_34))) (let ((.def_37 (not .def_36))) (let ((.def_38 (= .def_37 .def_31))) (let ((.def_39 (not .def_38))) (let ((.def_40 (or A21 A0))) (let ((.def_41 (not .def_40))) (let ((.def_42 (or .def_19 A0))) (let ((.def_43 (not .def_42))) (let ((.def_44 (or .def_43 .def_41))) (let ((.def_45 (not .def_44))) (let ((.def_46 (not A6))) (let ((.def_47 (and .def_46 A0))) (let ((.def_48 (not A15))) (let ((.def_49 (or A1 .def_48))) (let ((.def_50 (not .def_49))) (let ((.def_51 (and .def_50 .def_47))) (let ((.def_52 (not .def_51))) (let ((.def_53 (and .def_52 .def_45))) (let ((.def_54 (and .def_53 .def_39))) (let ((.def_55 (not .def_54))) (let ((.def_56 (or .def_55 .def_24))) (let ((.def_57 (not .def_56))) (let ((.def_58 (or A4 A19))) (let ((.def_59 (not .def_58))) (let ((.def_60 (or A20 A18))) (let ((.def_61 (or .def_60 .def_59))) (let ((.def_62 (not A4))) (let ((.def_63 (and .def_62 A18))) (let ((.def_64 (not .def_63))) (let ((.def_65 (or .def_62 .def_19))) (let ((.def_66 (and .def_65 .def_64))) (let ((.def_67 (not .def_66))) (let ((.def_68 (or .def_67 .def_61))) (let ((.def_69 (not A14))) (let ((.def_70 (not A18))) (let ((.def_71 (and .def_70 .def_69))) (let ((.def_72 (or A19 .def_3))) (let ((.def_73 (= .def_72 .def_71))) (let ((.def_74 (or A20 .def_19))) (let ((.def_75 (or A3 A22))) (let ((.def_76 (not .def_75))) (let ((.def_77 (and .def_76 .def_74))) (let ((.def_78 (and .def_77 .def_73))) (let ((.def_79 (not .def_78))) (let ((.def_80 (or .def_79 .def_68))) (let ((.def_81 (not A5))) (let ((.def_82 (not A7))) (let ((.def_83 (or .def_82 .def_81))) (let ((.def_84 (or A6 A20))) (let ((.def_85 (and .def_84 .def_83))) (let ((.def_86 (not .def_85))) (let ((.def_87 (or A8 A11))) (let ((.def_88 (not A16))) (let ((.def_89 (or .def_19 .def_88))) (let ((.def_90 (and .def_89 .def_87))) (let ((.def_91 (or .def_90 .def_86))) (let ((.def_92 (or A5 A12))) (let ((.def_93 (not .def_92))) (let ((.def_94 (and A11 A14))) (let ((.def_95 (not .def_94))) (let ((.def_96 (and .def_95 .def_93))) (let ((.def_97 (not .def_96))) (let ((.def_98 (or .def_25 A8))) (let ((.def_99 (not A2))) (let ((.def_100 (and .def_99 A22))) (let ((.def_101 (not .def_100))) (let ((.def_102 (= .def_101 .def_98))) (let ((.def_103 (not .def_102))) (let ((.def_104 (or .def_103 .def_97))) (let ((.def_105 (= .def_104 .def_91))) (let ((.def_106 (not .def_105))) (let ((.def_107 (and .def_106 .def_80))) (let ((.def_108 (not .def_107))) (let ((.def_109 (and .def_108 .def_57))) (let ((.def_110 (not .def_109))) (let ((.def_111 (not A17))) (let ((.def_112 (or .def_111 A4))) (let ((.def_113 (not .def_112))) (let ((.def_114 (and .def_48 A11))) (let ((.def_115 (and .def_114 .def_113))) (let ((.def_116 (not .def_115))) (let ((.def_117 (not A22))) (let ((.def_118 (and A19 .def_117))) (let ((.def_119 (not .def_118))) (let ((.def_120 (and .def_82 A10))) (let ((.def_121 (not .def_120))) (let ((.def_122 (or .def_121 .def_119))) (let ((.def_123 (and .def_122 .def_116))) (let ((.def_124 (not .def_123))) (let ((.def_125 (not A3))) (let ((.def_126 (or A22 .def_125))) (let ((.def_127 (not A12))) (let ((.def_128 (and .def_127 .def_125))) (let ((.def_129 (or .def_128 .def_126))) (let ((.def_130 (not .def_129))) (let ((.def_131 (not A20))) (let ((.def_132 (or .def_46 .def_131))) (let ((.def_133 (not A23))) (let ((.def_134 (and .def_133 A24))) (let ((.def_135 (not .def_134))) (let ((.def_136 (and .def_135 .def_132))) (let ((.def_137 (not .def_136))) (let ((.def_138 (or .def_137 .def_130))) (let ((.def_139 (and .def_138 .def_124))) (let ((.def_140 (not .def_139))) (let ((.def_141 (or A8 .def_16))) (let ((.def_142 (or .def_11 .def_0))) (let ((.def_143 (or .def_142 .def_141))) (let ((.def_144 (and A4 A6))) (let ((.def_145 (or A16 A13))) (let ((.def_146 (not .def_145))) (let ((.def_147 (or .def_146 .def_144))) (let ((.def_148 (not .def_147))) (let ((.def_149 (and .def_148 .def_143))) (let ((.def_150 (or A17 .def_127))) (let ((.def_151 (not .def_150))) (let ((.def_152 (or A23 A19))) (let ((.def_153 (not .def_152))) (let ((.def_154 (or .def_153 .def_151))) (let ((.def_155 (not .def_154))) (let ((.def_156 (or A13 A22))) (let ((.def_157 (not .def_156))) (let ((.def_158 (and A12 .def_81))) (let ((.def_159 (or .def_158 .def_157))) (let ((.def_160 (not .def_159))) (let ((.def_161 (and .def_160 .def_155))) (let ((.def_162 (not .def_161))) (let ((.def_163 (and .def_162 .def_149))) (let ((.def_164 (not .def_163))) (let ((.def_165 (or .def_164 .def_140))) (let ((.def_166 (not .def_165))) (let ((.def_167 (or A0 .def_48))) (let ((.def_168 (or .def_125 A2))) (let ((.def_169 (and .def_168 .def_167))) (let ((.def_170 (not .def_169))) (let ((.def_171 (and .def_25 A13))) (let ((.def_172 (not .def_171))) (let ((.def_173 (or .def_19 .def_99))) (let ((.def_174 (and .def_173 .def_172))) (let ((.def_175 (not .def_174))) (let ((.def_176 (and .def_175 .def_170))) (let ((.def_177 (= .def_62 .def_111))) (let ((.def_178 (not .def_177))) (let ((.def_179 (and .def_111 .def_48))) (let ((.def_180 (not .def_179))) (let ((.def_181 (= .def_180 .def_178))) (let ((.def_182 (or .def_11 A8))) (let ((.def_183 (not .def_182))) (let ((.def_184 (and A0 A14))) (let ((.def_185 (and .def_184 .def_183))) (let ((.def_186 (and .def_185 .def_181))) (let ((.def_187 (not .def_186))) (let ((.def_188 (or .def_187 .def_176))) (let ((.def_189 (and A1 .def_16))) (let ((.def_190 (not .def_189))) (let ((.def_191 (and .def_99 A18))) (let ((.def_192 (not .def_191))) (let ((.def_193 (and .def_192 .def_190))) (let ((.def_194 (not .def_193))) (let ((.def_195 (or A7 .def_32))) (let ((.def_196 (not .def_195))) (let ((.def_197 (= A14 .def_28))) (let ((.def_198 (not .def_197))) (let ((.def_199 (and .def_198 .def_196))) (let ((.def_200 (not .def_199))) (let ((.def_201 (and .def_200 .def_194))) (let ((.def_202 (not .def_201))) (let ((.def_203 (or A0 .def_111))) (let ((.def_204 (and A19 A8))) (let ((.def_205 (or .def_204 .def_203))) (let ((.def_206 (or A3 A24))) (let ((.def_207 (and A0 A2))) (let ((.def_208 (or .def_207 .def_206))) (let ((.def_209 (and .def_208 .def_205))) (let ((.def_210 (not .def_209))) (let ((.def_211 (or .def_210 .def_202))) (let ((.def_212 (not .def_211))) (let ((.def_213 (and .def_212 .def_188))) (let ((.def_214 (not .def_213))) (let ((.def_215 (and .def_214 .def_166))) (let ((.def_216 (not .def_215))) (let ((.def_217 (or .def_216 .def_110))) (let ((.def_218 (not A21))) (let ((.def_219 (= .def_218 A17))) (let ((.def_220 (not .def_219))) (let ((.def_221 (and A5 .def_46))) (let ((.def_222 (not .def_221))) (let ((.def_223 (or .def_222 .def_220))) (let ((.def_224 (not .def_223))) (let ((.def_225 (and A6 .def_48))) (let ((.def_226 (and A1 A16))) (let ((.def_227 (not .def_226))) (let ((.def_228 (and .def_227 .def_225))) (let ((.def_229 (not .def_228))) (let ((.def_230 (or .def_229 .def_224))) (let ((.def_231 (and .def_48 A1))) (let ((.def_232 (not .def_231))) (let ((.def_233 (and A10 A18))) (let ((.def_234 (and .def_233 .def_232))) (let ((.def_235 (not .def_234))) (let ((.def_236 (and A11 .def_69))) (let ((.def_237 (and A17 .def_46))) (let ((.def_238 (not .def_237))) (let ((.def_239 (and .def_238 .def_236))) (let ((.def_240 (and .def_239 .def_235))) (let ((.def_241 (not .def_240))) (let ((.def_242 (and .def_241 .def_230))) (let ((.def_243 (not .def_242))) (let ((.def_244 (and .def_99 .def_88))) (let ((.def_245 (and A5 A13))) (let ((.def_246 (not .def_245))) (let ((.def_247 (or .def_246 .def_244))) (let ((.def_248 (not .def_247))) (let ((.def_249 (and A9 .def_62))) (let ((.def_250 (not .def_249))) (let ((.def_251 (or .def_125 .def_70))) (let ((.def_252 (not .def_251))) (let ((.def_253 (and .def_252 .def_250))) (let ((.def_254 (not .def_253))) (let ((.def_255 (= .def_254 .def_248))) (let ((.def_256 (not .def_255))) (let ((.def_257 (or .def_133 .def_218))) (let ((.def_258 (not .def_257))) (let ((.def_259 (and A10 A21))) (let ((.def_260 (or .def_259 .def_258))) (let ((.def_261 (not .def_260))) (let ((.def_262 (and A6 A3))) (let ((.def_263 (and .def_16 A4))) (let ((.def_264 (not .def_263))) (let ((.def_265 (and .def_264 .def_262))) (let ((.def_266 (not .def_265))) (let ((.def_267 (= .def_266 .def_261))) (let ((.def_268 (not .def_267))) (let ((.def_269 (and .def_268 .def_256))) (let ((.def_270 (or .def_269 .def_243))) (let ((.def_271 (not .def_270))) (let ((.def_272 (and A8 .def_11))) (let ((.def_273 (and A16 A7))) (let ((.def_274 (not .def_273))) (let ((.def_275 (and .def_274 .def_272))) (let ((.def_276 (or .def_127 A14))) (let ((.def_277 (and A18 .def_131))) (let ((.def_278 (and .def_277 .def_276))) (let ((.def_279 (not .def_278))) (let ((.def_280 (or .def_279 .def_275))) (let ((.def_281 (and A18 .def_48))) (let ((.def_282 (not .def_281))) (let ((.def_283 (or .def_28 .def_133))) (let ((.def_284 (or .def_283 .def_282))) (let ((.def_285 (= A15 A6))) (let ((.def_286 (and .def_70 A24))) (let ((.def_287 (not .def_286))) (let ((.def_288 (or .def_287 .def_285))) (let ((.def_289 (not .def_288))) (let ((.def_290 (or .def_289 .def_284))) (let ((.def_291 (or .def_290 .def_280))) (let ((.def_292 (not .def_291))) (let ((.def_293 (= .def_131 .def_125))) (let ((.def_294 (not .def_293))) (let ((.def_295 (or A3 A18))) (let ((.def_296 (not .def_295))) (let ((.def_297 (or .def_296 .def_294))) (let ((.def_298 (or .def_70 A23))) (let ((.def_299 (not .def_298))) (let ((.def_300 (or .def_133 .def_82))) (let ((.def_301 (not .def_300))) (let ((.def_302 (or .def_301 .def_299))) (let ((.def_303 (not .def_302))) (let ((.def_304 (or .def_303 .def_297))) (let ((.def_305 (and A8 A10))) (let ((.def_306 (and A10 A6))) (let ((.def_307 (and .def_306 .def_305))) (let ((.def_308 (not .def_307))) (let ((.def_309 (or A11 A5))) (let ((.def_310 (and .def_62 .def_11))) (let ((.def_311 (not .def_310))) (let ((.def_312 (and .def_311 .def_309))) (let ((.def_313 (not .def_312))) (let ((.def_314 (or .def_313 .def_308))) (let ((.def_315 (and .def_314 .def_304))) (let ((.def_316 (not .def_315))) (let ((.def_317 (or .def_316 .def_292))) (let ((.def_318 (and .def_317 .def_271))) (let ((.def_319 (not .def_318))) (let ((.def_320 (and .def_125 A12))) (let ((.def_321 (not .def_320))) (let ((.def_322 (or .def_131 A1))) (let ((.def_323 (not .def_322))) (let ((.def_324 (or .def_323 .def_321))) (let ((.def_325 (not .def_324))) (let ((.def_326 (and A7 .def_16))) (let ((.def_327 (and .def_62 .def_81))) (let ((.def_328 (or .def_327 .def_326))) (let ((.def_329 (not .def_328))) (let ((.def_330 (and .def_329 .def_325))) (let ((.def_331 (not .def_330))) (let ((.def_332 (or .def_69 A12))) (let ((.def_333 (not .def_332))) (let ((.def_334 (and A22 A5))) (let ((.def_335 (and .def_334 .def_333))) (let ((.def_336 (not .def_335))) (let ((.def_337 (or A14 .def_46))) (let ((.def_338 (and .def_131 A23))) (let ((.def_339 (= .def_338 .def_337))) (let ((.def_340 (and .def_339 .def_336))) (let ((.def_341 (not .def_340))) (let ((.def_342 (and .def_341 .def_331))) (let ((.def_343 (not .def_342))) (let ((.def_344 (or A11 .def_48))) (let ((.def_345 (or .def_16 A18))) (let ((.def_346 (or .def_345 .def_344))) (let ((.def_347 (not A13))) (let ((.def_348 (and A10 .def_347))) (let ((.def_349 (not .def_348))) (let ((.def_350 (= .def_81 A14))) (let ((.def_351 (not .def_350))) (let ((.def_352 (and .def_351 .def_349))) (let ((.def_353 (and .def_352 .def_346))) (let ((.def_354 (not .def_353))) (let ((.def_355 (and A2 .def_32))) (let ((.def_356 (or .def_125 .def_3))) (let ((.def_357 (or .def_356 .def_355))) (let ((.def_358 (not .def_357))) (let ((.def_359 (and A12 A14))) (let ((.def_360 (or .def_25 A4))) (let ((.def_361 (not .def_360))) (let ((.def_362 (= .def_361 .def_359))) (let ((.def_363 (not .def_362))) (let ((.def_364 (= .def_363 .def_358))) (let ((.def_365 (not .def_364))) (let ((.def_366 (or .def_365 .def_354))) (let ((.def_367 (not .def_366))) (let ((.def_368 (and .def_367 .def_343))) (let ((.def_369 (or .def_69 .def_28))) (let ((.def_370 (and A20 A17))) (let ((.def_371 (not .def_370))) (let ((.def_372 (and .def_371 .def_369))) (let ((.def_373 (not .def_372))) (let ((.def_374 (= .def_81 A6))) (let ((.def_375 (not .def_374))) (let ((.def_376 (and .def_218 .def_32))) (let ((.def_377 (not .def_376))) (let ((.def_378 (and .def_377 .def_375))) (let ((.def_379 (not .def_378))) (let ((.def_380 (or .def_379 .def_373))) (let ((.def_381 (and A1 .def_46))) (let ((.def_382 (not .def_381))) (let ((.def_383 (and .def_218 .def_82))) (let ((.def_384 (or .def_383 .def_382))) (let ((.def_385 (or .def_62 A13))) (let ((.def_386 (not .def_385))) (let ((.def_387 (or .def_111 .def_133))) (let ((.def_388 (not .def_387))) (let ((.def_389 (= .def_388 .def_386))) (let ((.def_390 (or .def_389 .def_384))) (let ((.def_391 (or .def_390 .def_380))) (let ((.def_392 (not .def_391))) (let ((.def_393 (and .def_46 A14))) (let ((.def_394 (not .def_393))) (let ((.def_395 (or A23 A1))) (let ((.def_396 (not .def_395))) (let ((.def_397 (or .def_396 .def_394))) (let ((.def_398 (or .def_99 .def_11))) (let ((.def_399 (not .def_398))) (let ((.def_400 (and A16 A2))) (let ((.def_401 (not .def_400))) (let ((.def_402 (or .def_401 .def_399))) (let ((.def_403 (and .def_402 .def_397))) (let ((.def_404 (not .def_403))) (let ((.def_405 (or A10 A16))) (let ((.def_406 (and .def_0 A5))) (let ((.def_407 (and .def_406 .def_405))) (let ((.def_408 (and .def_69 A15))) (let ((.def_409 (not .def_408))) (let ((.def_410 (or A1 A8))) (let ((.def_411 (or .def_410 .def_409))) (let ((.def_412 (= .def_411 .def_407))) (let ((.def_413 (or .def_412 .def_404))) (let ((.def_414 (not .def_413))) (let ((.def_415 (and .def_414 .def_392))) (let ((.def_416 (not .def_415))) (let ((.def_417 (or .def_416 .def_368))) (let ((.def_418 (and .def_417 .def_319))) (let ((.def_419 (and .def_418 .def_217))) .def_419)))))))))))))))))))))))))))))))))))))))))))))))))))))))))))))))))))))))))))))))))))))))))))))))))))))))))))))))))))))))))))))))))))))))))))))))))))))))))))))))))))))))))))))))))))))))))))))))))))))))))))))))))))))))))))))))))))))))))))))))))))))))))))))))))))))))))))))))))))))))))))))))))))))))))))))))))))))))))))))))))))))))))))))))))))))))))))))))))))))))))))))))))))))))))))))))))))))))))))))))))))))))))))))))))))))
(check-sat)
